%chk=pyridine_trappe.chk
# hf/3-21g geom=connectivity

Title Card Required

0 1
 N                  0.00000000    0.00000000    0.00000000
 C                  0.00000000    0.00000000    1.33000000
 C                  1.15942637    0.00000000    2.10032104
 C                  2.38962812    0.00000000    1.44896274
 C                  2.40420485    0.00000000    0.05703906
 C                  1.18224334    0.00000000   -0.60977623
 H                 -0.96986978    0.00000000    1.80513430
 H                  1.09537548    0.00000000    3.17842005
 H                  3.31146299    0.00000000    2.01165314
 H                  3.33284530    0.00000000   -0.49434729
 H                  1.15992727    0.00000000   -1.68978116

 1 2 2.0 6 1.0
 2 7 1.0 3 1.0
 3 4 2.0 8 1.0
 4 5 1.0 9 1.0
 5 6 2.0 10 1.0
 6 11 1.0
 7
 8
 9
 10
 11

